
  26    0


   0  14 2 3 4 5 6 9 10 11 12 13 22 23 24 25 
   8   5 19 18 17 15 14 
   1   5 21 19 18 15 14 
   3   5 19 18 17 16 15 
   2   2 15 7 
   8   1 8 
   3   1 14 
   9   1 16 
   7   1 20 
   5   1 17 
   6   1 16 
   7   1 14 
   5   1 14 
   8   1 26
   3   1 26
   3   1 26
   7   1 26
   4   1 26
   1   1 26
   5   1 26
   3   1 26
   1   1 26
   8   1 26
   5   1 26
   1   1 26
   0   0 
